proyfinal/src/viki/013/andrea/andrea-localstore/experimentInOfficeAgust.take6/worker_1/d565f8d1-2360-491f-a438-ccb93ad37e82.als.cnf.out
Reading from standard input... Use '--help' for help.
============================[ Problem Statistics ]=============================
|                                                                             |
|  Number of variables:         87638                                         |
|  Number of clauses:          161767                                         |
|  Parse time:                   0.03 s                                       |
|                                                                             |
============================[ Search Statistics ]==============================
| Conflicts |          ORIGINAL         |          LEARNT          | Progress |
|           |    Vars  Clauses Literals |    Limit  Clauses Lit/Cl |          |
===============================================================================
|       100 |   63170   108093   269956 |    39634      100      8 | 27.919 % |
|       250 |   63169   108049   269866 |    43597      248     34 | 27.921 % |
|       475 |   63169   108049   269866 |    47957      473     49 | 27.921 % |
|       812 |   63169   108049   269866 |    52752      810     53 | 27.921 % |
|      1318 |   63169   108049   269866 |    58028     1316     46 | 27.921 % |
|      2077 |   63169   108049   269866 |    63831     2075     66 | 27.921 % |
|      3216 |   63169   108049   269866 |    70214     3214     67 | 27.921 % |
|      4924 |   63169   108049   269866 |    77235     4922     77 | 27.921 % |
|      7486 |   63169   108049   269866 |    84959     7484     87 | 27.921 % |
|     11330 |   55645    84984   213155 |    93455     8749     70 | 36.506 % |
===============================================================================
restarts              : 63
conflicts             : 16813          (7650 /sec)
decisions             : 60752          (0.00 % random) (27642 /sec)
propagations          : 24737307       (11255245 /sec)
conflict literals     : 1344302        (45.03 % deleted)
Memory used           : 34.79 MB
CPU time              : 2.19785 s

INDETERMINATE
